9
0, 499, 595, 323, 596, 408, 704, 573, 271
499, 0, 97, 589, 257, 210, 223, 316, 536
595, 97, 0, 681, 241, 268, 132, 319, 613
323, 589, 681, 0, 785, 612, 812, 794, 593
596, 257, 241, 785, 0, 188, 218, 87, 504
408, 210, 268, 612, 188, 0, 331, 182, 352
704, 223, 132, 812, 218, 331, 0, 305, 682
573, 316, 319, 794, 87, 182, 305, 0, 445
271, 536, 613, 593, 504, 352, 682, 445, 0
